c Choco e747e1e
v <instantiation id='sol1' type='solution' ><list>Andrew[0] Andrew[1] Andrew[2] Andrew[3] PCA[0] PCA[1] PCA[2] PCA[3] PCB[0] PCB[1] PCB[2] PCB[3] PCC[0] PCC[1] PCC[2] PCC[3] PCD[0] PCD[1] PCD[2] PCD[3] processorsSecondaires[0] processorsSecondaires[1] processorsSecondaires[2] processorsSecondaires[3] processorsSecondaires[4] monitorsSecondaires[0] monitorsSecondaires[1] monitorsSecondaires[2] monitorsSecondaires[3] monitorsSecondaires[4] pricesSecondaires[0] pricesSecondaires[1] pricesSecondaires[2] pricesSecondaires[3] pricesSecondaires[4] </list><values>4 4 0 4 3 0 4 2 2 2 1 1 0 3 2 3 1 1 3 0 3 4 2 1 0 0 2 3 4 1 4 2 1 3 0 </values></instantiation>

s SATISFIABLE
v <instantiation id='sol1' type='solution' ><list>Andrew[0] Andrew[1] Andrew[2] Andrew[3] PCA[0] PCA[1] PCA[2] PCA[3] PCB[0] PCB[1] PCB[2] PCB[3] PCC[0] PCC[1] PCC[2] PCC[3] PCD[0] PCD[1] PCD[2] PCD[3] processorsSecondaires[0] processorsSecondaires[1] processorsSecondaires[2] processorsSecondaires[3] processorsSecondaires[4] monitorsSecondaires[0] monitorsSecondaires[1] monitorsSecondaires[2] monitorsSecondaires[3] monitorsSecondaires[4] pricesSecondaires[0] pricesSecondaires[1] pricesSecondaires[2] pricesSecondaires[3] pricesSecondaires[4] </list><values>4 4 0 4 3 0 4 2 2 2 1 1 0 3 2 3 1 1 3 0 3 4 2 1 0 0 2 3 4 1 4 2 1 3 0 </values></instantiation>
d FOUND SOLUTIONS 1

